swarm_exploration/utils/lkh_mtsp_solver/resource/drone_1.tsp
NAME : single
TYPE : ATSP
DIMENSION : 8
EDGE_WEIGHT_TYPE : EXPLICIT
EDGE_WEIGHT_FORMAT : FULL_MATRIX
EDGE_WEIGHT_SECTION
0 600 660 652 210 389 370 65 
0 0 60 158 295 169 268 258 
0 60 0 99 313 192 279 273 
0 158 99 0 300 223 272 260 
0 295 313 300 0 162 184 151 
0 169 192 223 162 0 197 163 
0 268 279 272 184 197 0 72 
0 258 273 260 151 163 72 0 
EOF